6 100 
1 39 19 0
2 79 19 18
3 41 79 16
4 25 31 22
5 63 93 24
6 33 5 3
7 69 17 19
8 57 73 6
9 53 75 6
10 1 1 6
11 79 73 12
12 59 5 18
13 1 37 16
14 41 31 72
15 23 73 7
16 37 27 16
17 85 93 23
18 93 13 4
19 85 45 22
20 49 91 23
21 55 43 7
22 83 29 11
23 93 49 11
24 87 23 1
25 31 23 22
26 19 97 16
27 41 9 15
28 83 61 7
29 9 7 5
30 13 13 22
31 43 37 9
32 13 61 10
33 71 51 11
34 45 93 9
35 93 55 3
36 5 97 7
37 81 11 15
38 7 53 10
39 7 41 2
